words_hard_train/1275.qaiger
aag 97 22 0 1 75
2
4
12
20
22
30
32
40
42
50
52
60
62
82
90
98
104
114
122
138
170
178
195
6 2 5
8 3 4
10 7 9
14 12 5
16 13 4
18 15 17
24 20 23
26 21 22
28 25 27
34 30 33
36 31 32
38 35 37
44 40 43
46 41 42
48 45 47
54 50 52
56 51 53
58 55 57
64 60 63
66 61 62
68 65 67
70 58 68
72 48 70
74 38 72
76 28 74
78 18 76
80 11 79
84 81 82
86 29 75
88 87 77
92 88 90
94 19 77
96 95 79
100 96 98
102 93 101
106 69 105
108 107 71
110 49 71
112 111 73
116 113 115
118 108 117
120 68 104
124 121 123
126 124 59
128 118 127
130 112 114
132 129 131
134 39 73
136 135 75
140 136 138
142 132 141
144 137 139
146 89 91
148 145 147
150 143 148
152 102 151
154 97 99
156 10 78
158 81 157
160 159 83
162 155 161
164 153 162
166 85 165
168 166 157
172 4 171
174 5 170
176 173 175
180 176 178
182 164 156
184 180 183
186 169 185
188 177 179
190 186 189
192 183 188
194 191 193
i0 1 x1[6]
i1 2 y1[7]
i2 1 x1[5]
i3 2 y1[6]
i4 1 x1[4]
i5 2 y1[5]
i6 1 x1[3]
i7 2 y1[4]
i8 1 x1[2]
i9 2 y1[2]
i10 1 x1[0]
i11 2 y1[3]
i12 1 x1[1]
i13 1 x2[6]
i14 1 x2[4]
i15 1 x2[5]
i16 1 x2[1]
i17 1 x2[2]
i18 1 x2[0]
i19 1 x2[3]
i20 1 x1[7]
i21 1 x2[7]
o0 bv[0]
c
simplified
  <=
    xor
      1 x1
      xor
        >> 2
          2 y1
        1
    1 x2
