words_hard_train/1275.qaiger.qdimacs
p cnf 97 226
a 89 1 69 6 41 11 45 16 49 52 21 85 57 26 61 31 0
e 2 3 4 5 7 8 9 10 12 13 14 15 17 18 19 20 22 23 24 25 27 28 29 30 32 33 34 35 36 37 38 39 40 42 43 44 46 47 48 50 51 53 54 55 56 58 59 60 62 63 64 65 66 67 68 70 71 72 73 74 75 76 77 78 79 80 81 82 83 84 86 87 88 90 91 92 93 94 95 96 97 0
-1 2 3 0
1 -3 0
-2 -3 0
1 -2 4 0
-1 -4 0
2 -4 0
3 4 5 0
-3 -5 0
-4 -5 0
-6 2 7 0
6 -7 0
-2 -7 0
6 -2 8 0
-6 -8 0
2 -8 0
7 8 9 0
-7 -9 0
-8 -9 0
-10 11 12 0
10 -12 0
-11 -12 0
10 -11 13 0
-10 -13 0
11 -13 0
12 13 14 0
-12 -14 0
-13 -14 0
-15 16 17 0
15 -17 0
-16 -17 0
15 -16 18 0
-15 -18 0
16 -18 0
17 18 19 0
-17 -19 0
-18 -19 0
-20 21 22 0
20 -22 0
-21 -22 0
20 -21 23 0
-20 -23 0
21 -23 0
22 23 24 0
-22 -24 0
-23 -24 0
-25 -26 27 0
25 -27 0
26 -27 0
25 26 28 0
-25 -28 0
-26 -28 0
27 28 29 0
-27 -29 0
-28 -29 0
-30 31 32 0
30 -32 0
-31 -32 0
30 -31 33 0
-30 -33 0
31 -33 0
32 33 34 0
-32 -34 0
-33 -34 0
-29 -34 35 0
29 -35 0
34 -35 0
-24 -35 36 0
24 -36 0
35 -36 0
-19 -36 37 0
19 -37 0
36 -37 0
-14 -37 38 0
14 -38 0
37 -38 0
-9 -38 39 0
9 -39 0
38 -39 0
5 39 40 0
-5 -40 0
-39 -40 0
40 -41 42 0
-40 -42 0
41 -42 0
14 37 43 0
-14 -43 0
-37 -43 0
43 38 44 0
-43 -44 0
-38 -44 0
-44 -45 46 0
44 -46 0
45 -46 0
9 38 47 0
-9 -47 0
-38 -47 0
47 39 48 0
-47 -48 0
-39 -48 0
-48 -49 50 0
48 -50 0
49 -50 0
46 50 51 0
-46 -51 0
-50 -51 0
34 52 53 0
-34 -53 0
-52 -53 0
53 35 54 0
-53 -54 0
-35 -54 0
24 35 55 0
-24 -55 0
-35 -55 0
55 36 56 0
-55 -56 0
-36 -56 0
56 57 58 0
-56 -58 0
-57 -58 0
-54 58 59 0
54 -59 0
-58 -59 0
-34 -52 60 0
34 -60 0
52 -60 0
60 61 62 0
-60 -62 0
-61 -62 0
-62 29 63 0
62 -63 0
-29 -63 0
-59 63 64 0
59 -64 0
-63 -64 0
-56 -57 65 0
56 -65 0
57 -65 0
64 65 66 0
-64 -66 0
-65 -66 0
19 36 67 0
-19 -67 0
-36 -67 0
67 37 68 0
-67 -68 0
-37 -68 0
-68 -69 70 0
68 -70 0
69 -70 0
-66 70 71 0
66 -71 0
-70 -71 0
68 69 72 0
-68 -72 0
-69 -72 0
44 45 73 0
-44 -73 0
-45 -73 0
72 73 74 0
-72 -74 0
-73 -74 0
71 -74 75 0
-71 -75 0
74 -75 0
-51 75 76 0
51 -76 0
-75 -76 0
48 49 77 0
-48 -77 0
-49 -77 0
-5 -39 78 0
5 -78 0
39 -78 0
40 78 79 0
-40 -79 0
-78 -79 0
79 41 80 0
-79 -80 0
-41 -80 0
77 80 81 0
-77 -81 0
-80 -81 0
76 -81 82 0
-76 -82 0
81 -82 0
42 82 83 0
-42 -83 0
-82 -83 0
-83 78 84 0
83 -84 0
-78 -84 0
-2 85 86 0
2 -86 0
-85 -86 0
2 -85 87 0
-2 -87 0
85 -87 0
86 87 88 0
-86 -88 0
-87 -88 0
-88 -89 90 0
88 -90 0
89 -90 0
-82 -78 91 0
82 -91 0
78 -91 0
-90 91 92 0
90 -92 0
-91 -92 0
84 92 93 0
-84 -93 0
-92 -93 0
88 89 94 0
-88 -94 0
-89 -94 0
-93 94 95 0
93 -95 0
-94 -95 0
91 -94 96 0
-91 -96 0
94 -96 0
95 96 97 0
-95 -97 0
-96 -97 0
-97 0
